solution status: optimal solution found
objective value:                     119686.842491358
d11(0,0)                                            1 	(obj:0)
d11(1,1)                                            1 	(obj:0)
d11(1,2)                                            1 	(obj:0)
d11(2,4)                                            1 	(obj:0)
d11(2,5)                                            1 	(obj:0)
d11(2,6)                                            1 	(obj:0)
d11(2,7)                                            1 	(obj:0)
d11(2,8)                                            1 	(obj:0)
d11(2,10)                                           1 	(obj:0)
d11(2,11)                                           1 	(obj:0)
d11(2,12)                                           1 	(obj:0)
d11(3,13)                                           1 	(obj:0)
d11(3,14)                                           1 	(obj:0)
d11(3,16)                                           1 	(obj:0)
d11(3,17)                                           1 	(obj:0)
d11(3,19)                                           1 	(obj:0)
d11(3,20)                                           1 	(obj:0)
d11(3,22)                                           1 	(obj:0)
d11(3,23)                                           1 	(obj:0)
d11(3,25)                                           1 	(obj:0)
d11(3,26)                                           1 	(obj:0)
d11(3,28)                                           1 	(obj:0)
d11(3,29)                                           1 	(obj:0)
d11(3,31)                                           1 	(obj:0)
d11(3,32)                                           1 	(obj:0)
d11(3,34)                                           1 	(obj:0)
d11(3,35)                                           1 	(obj:0)
d11(3,37)                                           1 	(obj:0)
d11(3,38)                                           1 	(obj:0)
d12(1,3)                                            1 	(obj:0)
d12(3,15)                                           1 	(obj:0)
d12(3,18)                                           1 	(obj:0)
d12(3,21)                                           1 	(obj:0)
d12(3,24)                                           1 	(obj:0)
d12(3,27)                                           1 	(obj:0)
d12(3,30)                                           1 	(obj:0)
d12(3,33)                                           1 	(obj:0)
d12(3,36)                                           1 	(obj:0)
d12(3,39)                                           1 	(obj:0)
d21(2,4)                                            1 	(obj:0)
d21(2,5)                                            1 	(obj:0)
d21(3,13)                                           1 	(obj:0)
d21(3,14)                                           1 	(obj:0)
d21(3,15)                                           1 	(obj:0)
d21(3,16)                                           1 	(obj:0)
d21(3,17)                                           1 	(obj:0)
d21(3,19)                                           1 	(obj:0)
d21(3,22)                                           1 	(obj:0)
d21(3,23)                                           1 	(obj:0)
d21(3,25)                                           1 	(obj:0)
d21(3,31)                                           1 	(obj:0)
y2(3,24)                             663.157894737436 	(obj:0)
y2(3,27)                             663.157894737436 	(obj:0)
y2(3,30)                             663.157894737436 	(obj:0)
y2(3,33)                             663.157894737436 	(obj:0)
y2(3,36)                             663.157894737436 	(obj:0)
y2(3,39)                             663.157894737436 	(obj:0)
STE(1,1)                             5784.95220333286 	(obj:0)
STE(0,0)                                         7875 	(obj:0)
STE(1,2)                             6781.71820666668 	(obj:0)
STE(1,3)                             7745.28981143577 	(obj:0)
STE(2,4)                             2940.73399666618 	(obj:0)
STE(2,5)                             3937.49999999947 	(obj:0)
STE(2,6)                             5154.95220333285 	(obj:0)
STE(2,7)                                       3937.5 	(obj:0)
STE(2,8)                             4934.26600333329 	(obj:0)
STE(2,9)                             6151.71820666668 	(obj:0)
STE(2,10)                            4901.07160476909 	(obj:0)
STE(2,11)                            5897.83760810238 	(obj:0)
STE(2,12)                            7115.28981143577 	(obj:0)
STE(3,13)                            996.444696494814 	(obj:0)
STE(3,14)                            1993.21069982809 	(obj:0)
STE(3,15)                            2940.73399666675 	(obj:0)
STE(3,16)                            1993.21069982811 	(obj:0)
STE(3,17)                            2989.97670316134 	(obj:0)
STE(3,18)                                      3937.5 	(obj:0)
STE(3,19)                            3210.66290316148 	(obj:0)
STE(3,20)                            4207.42890649474 	(obj:0)
STE(3,21)                            5154.95220333341 	(obj:0)
STE(3,22)                            1993.21069982863 	(obj:0)
STE(3,23)                            2989.97670316193 	(obj:0)
STE(3,24)                            3937.50000000056 	(obj:0)
STE(3,25)                            2989.97670316192 	(obj:0)
STE(3,26)                            3986.74270649515 	(obj:0)
STE(3,27)                            4934.26600333386 	(obj:0)
STE(3,28)                            4207.42890649532 	(obj:0)
STE(3,29)                            5204.19490982861 	(obj:0)
STE(3,30)                            6151.71820666725 	(obj:0)
STE(3,31)                            2956.78230459772 	(obj:0)
STE(3,32)                            3953.54830793097 	(obj:0)
STE(3,33)                            4901.07160476965 	(obj:0)
STE(3,34)                            3953.54830793101 	(obj:0)
STE(3,35)                            4950.31431126422 	(obj:0)
STE(3,36)                            5897.83760810294 	(obj:0)
STE(3,37)                             5171.0005112644 	(obj:0)
STE(3,38)                            6167.76651459764 	(obj:0)
STE(3,39)                            7115.28981143633 	(obj:0)
y1(3,23)                             285.770967154267 	(obj:0)
y1(3,25)                             1182.86037015423 	(obj:0)
y1(3,26)                             285.770967154323 	(obj:0)
y1(3,28)                             1182.86037015423 	(obj:0)
y1(3,29)                             285.770967154268 	(obj:0)
y1(3,31)                             1182.86037015423 	(obj:0)
y1(3,32)                             285.770967154301 	(obj:0)
y1(3,34)                             1182.86037015423 	(obj:0)
y1(3,35)                             285.770967154338 	(obj:0)
y1(3,37)                             1182.86037015423 	(obj:0)
y1(3,38)                             285.770967154318 	(obj:0)
BG(3)                                3669.45302770838 	(obj:10)
AVE(1)                               3199.95851117552 	(obj:0)
AVE(2)                               3265.15049132519 	(obj:0)
WB(3)                                3291.35535332476 	(obj:0)
AVE(3)                               3291.35535332476 	(obj:0)
WG(1)                                3199.95851117552 	(obj:10)
WG(2)                                3265.15049132519 	(obj:10)
BG(1)                                603.354360252983 	(obj:10)
BG(2)                                1230.76785867481 	(obj:10)
y1(1,1)                              1314.04301700042 	(obj:0)
y1(1,2)                              416.953613999985 	(obj:0)
y1(2,4)                              1992.79638600001 	(obj:0)
y1(2,5)                              1095.70698300005 	(obj:0)
y1(2,7)                              1992.79638600001 	(obj:0)
y1(2,8)                              1095.70698300005 	(obj:0)
y1(2,10)                             1992.79638600001 	(obj:0)
y1(2,11)                             1095.70698300005 	(obj:0)
y1(3,13)                             1182.86037015423 	(obj:0)
y1(3,14)                             285.770967154283 	(obj:0)
y1(3,16)                             1182.86037015423 	(obj:0)
y1(3,17)                             285.770967154322 	(obj:0)
y1(3,19)                             1182.86037015423 	(obj:0)
y1(3,20)                             285.770967154301 	(obj:0)
y1(3,22)                             1182.86037015423 	(obj:0)
y2(1,3)                              526.620854142914 	(obj:0)
y2(3,15)                             663.157894737437 	(obj:0)
y2(3,18)                             663.157894737398 	(obj:0)
y2(3,21)                             663.157894737437 	(obj:0)
